Minimize

COST_0


Subject To

a0: COST_0 - 0 - 0 = 0
b0: CO2_0 - 0 x_0_0 - 0 x_0_1 - 0 x_0_2 - 0 x_0_3 - 0 x_1_0 - 0 x_1_1 - 0 x_1_2 - 0 x_1_3 - 0 x_2_0 - 0 x_2_1 - 0 x_2_2 - 0 x_2_3 - 0 = 0
c0: TIME_0 - 0 x_0_0 - 0 x_0_1 - 0 x_0_2 - 0 x_0_3 - 0 x_1_0 - 0 x_1_1 - 0 x_1_2 - 0 x_1_3 - 0 x_2_0 - 0 x_2_1 - 0 x_2_2 - 0 x_2_3 - 0 = 0
d0: x_0_0 + x_0_1 = 1
d1: x_1_1 + x_1_2 = 1
d2: x_2_3 = 1
e0: 0 = 0
e1: 0 = 0
e2: 0 = 0
f0: w_0_0 + w_0_1 + w_0_2 + w_0_3 = 1
f1: w_1_2 + w_1_4 + w_1_5 = 1
f2: 0 = 1
g0: 0 = 0
g1: 0 = 0
g2: 0 = 0




Binary

x_0_0 x_0_1 x_0_2 x_0_3 x_1_0 x_1_1 x_1_2 x_1_3 x_2_0 x_2_1 x_2_2 x_2_3 w_0_0 w_0_1 w_0_2 w_0_3 w_0_4 w_0_5 w_1_0 w_1_1 w_1_2 w_1_3 w_1_4 w_1_5 w_2_0 w_2_1 w_2_2 w_2_3 w_2_4 w_2_5 v_0_0_2_0_0 v_0_0_2_0_0 v_0_0_2_0_0 v_0_0_2_0_0 v_0_0_2_0_0 v_0_0_2_0_0 v_0_0_2_1_1 v_0_0_2_1_1 v_0_0_2_1_1 v_0_0_2_1_1 v_0_0_2_1_1 v_0_0_2_1_1 v_0_0_2_2_2 v_0_0_2_2_2 v_0_0_2_2_2 v_0_0_2_2_2 v_0_0_2_2_2 v_0_0_2_2_2 v_0_0_2_3_3 v_0_0_2_3_3 v_0_0_2_3_3 v_0_0_2_3_3 v_0_0_2_3_3 v_0_0_2_3_3 v_0_1_2_0_0 v_0_1_2_0_0 v_0_1_2_0_0 v_0_1_2_0_0 v_0_1_2_0_0 v_0_1_2_0_0 v_0_1_2_1_1 v_0_1_2_1_1 v_0_1_2_1_1 v_0_1_2_1_1 v_0_1_2_1_1 v_0_1_2_1_1 v_0_1_2_2_2 v_0_1_2_2_2 v_0_1_2_2_2 v_0_1_2_2_2 v_0_1_2_2_2 v_0_1_2_2_2 v_0_1_2_3_3 v_0_1_2_3_3 v_0_1_2_3_3 v_0_1_2_3_3 v_0_1_2_3_3 v_0_1_2_3_3 v_0_2_2_0_0 v_0_2_2_0_0 v_0_2_2_0_0 v_0_2_2_0_0 v_0_2_2_0_0 v_0_2_2_0_0 v_0_2_2_1_1 v_0_2_2_1_1 v_0_2_2_1_1 v_0_2_2_1_1 v_0_2_2_1_1 v_0_2_2_1_1 v_0_2_2_2_2 v_0_2_2_2_2 v_0_2_2_2_2 v_0_2_2_2_2 v_0_2_2_2_2 v_0_2_2_2_2 v_0_2_2_3_3 v_0_2_2_3_3 v_0_2_2_3_3 v_0_2_2_3_3 v_0_2_2_3_3 v_0_2_2_3_3 v_0_3_2_0_0 v_0_3_2_0_0 v_0_3_2_0_0 v_0_3_2_0_0 v_0_3_2_0_0 v_0_3_2_0_0 v_0_3_2_1_1 v_0_3_2_1_1 v_0_3_2_1_1 v_0_3_2_1_1 v_0_3_2_1_1 v_0_3_2_1_1 v_0_3_2_2_2 v_0_3_2_2_2 v_0_3_2_2_2 v_0_3_2_2_2 v_0_3_2_2_2 v_0_3_2_2_2 v_0_3_2_3_3 v_0_3_2_3_3 v_0_3_2_3_3 v_0_3_2_3_3 v_0_3_2_3_3 v_0_3_2_3_3 v_1_0_2_0_0 v_1_0_2_0_0 v_1_0_2_0_0 v_1_0_2_0_0 v_1_0_2_0_0 v_1_0_2_0_0 v_1_0_2_1_1 v_1_0_2_1_1 v_1_0_2_1_1 v_1_0_2_1_1 v_1_0_2_1_1 v_1_0_2_1_1 v_1_0_2_2_2 v_1_0_2_2_2 v_1_0_2_2_2 v_1_0_2_2_2 v_1_0_2_2_2 v_1_0_2_2_2 v_1_0_2_3_3 v_1_0_2_3_3 v_1_0_2_3_3 v_1_0_2_3_3 v_1_0_2_3_3 v_1_0_2_3_3 v_1_1_2_0_0 v_1_1_2_0_0 v_1_1_2_0_0 v_1_1_2_0_0 v_1_1_2_0_0 v_1_1_2_0_0 v_1_1_2_1_1 v_1_1_2_1_1 v_1_1_2_1_1 v_1_1_2_1_1 v_1_1_2_1_1 v_1_1_2_1_1 v_1_1_2_2_2 v_1_1_2_2_2 v_1_1_2_2_2 v_1_1_2_2_2 v_1_1_2_2_2 v_1_1_2_2_2 v_1_1_2_3_3 v_1_1_2_3_3 v_1_1_2_3_3 v_1_1_2_3_3 v_1_1_2_3_3 v_1_1_2_3_3 v_1_2_2_0_0 v_1_2_2_0_0 v_1_2_2_0_0 v_1_2_2_0_0 v_1_2_2_0_0 v_1_2_2_0_0 v_1_2_2_1_1 v_1_2_2_1_1 v_1_2_2_1_1 v_1_2_2_1_1 v_1_2_2_1_1 v_1_2_2_1_1 v_1_2_2_2_2 v_1_2_2_2_2 v_1_2_2_2_2 v_1_2_2_2_2 v_1_2_2_2_2 v_1_2_2_2_2 v_1_2_2_3_3 v_1_2_2_3_3 v_1_2_2_3_3 v_1_2_2_3_3 v_1_2_2_3_3 v_1_2_2_3_3 v_1_3_2_0_0 v_1_3_2_0_0 v_1_3_2_0_0 v_1_3_2_0_0 v_1_3_2_0_0 v_1_3_2_0_0 v_1_3_2_1_1 v_1_3_2_1_1 v_1_3_2_1_1 v_1_3_2_1_1 v_1_3_2_1_1 v_1_3_2_1_1 v_1_3_2_2_2 v_1_3_2_2_2 v_1_3_2_2_2 v_1_3_2_2_2 v_1_3_2_2_2 v_1_3_2_2_2 v_1_3_2_3_3 v_1_3_2_3_3 v_1_3_2_3_3 v_1_3_2_3_3 v_1_3_2_3_3 v_1_3_2_3_3


General

 COST_0 CO2_0 TIME_0



End
